NAME: kroC100cut50
TYPE: TSP
COMMENT: 100-city problem C (Krolak/Felts/Nelson)
DIMENSION: 50
EDGE_WEIGHT_TYPE : EUC_2D
NODE_COORD_SECTION
1 1357 1905
2 2650 802
3 1774 107
4 1307 964
5 3806 746
6 2687 1353
7 43 1957
8 3092 1668
9 185 1542
10 834 629
11 40 462
12 1183 1391
13 2048 1628
14 1097 643
15 1838 1732
16 234 1118
17 3314 1881
18 737 1285
19 779 777
20 2312 1949
21 2576 189
22 3078 1541
23 2781 478
24 705 1812
25 3409 1917
26 323 1714
27 1660 1556
28 3729 1188
29 693 1383
30 2361 640
31 2433 1538
32 554 1825
33 913 317
34 3586 1909
35 2636 727
36 1000 457
37 482 1337
38 3704 1082
39 3635 1174
40 1362 1526
41 2049 417
42 2552 1909
43 3939 640
44 219 898
45 812 351
46 901 1552
47 2513 1572
48 242 584
49 826 1226
50 3278 799
EOF
